Traveling Salesman Problem/TSP_generados/Aleatorio1621104134_19.tsp
NAME: Aleatorio1621104134_19.tsp
COMMENT: Randomly generated scenario
TYPE: TSP
DIMENSION: 19
EDGE_WEIGHT_TYPE: ATT
NODE_COORD_SECTION
1 14.46 8.26
2 21.91 7.92
3 28.82 31.3
4 46.31 43.5
5 27.06 10.45
6 2.18 28.99
7 8.7 13.76
8 44.1 45.62
9 6.71 34.87
10 34.37 29.07
11 24.66 16.7
12 18.03 13.44
13 37.1 12.73
14 25.15 44.73
15 36.39 29.28
16 7.65 0.42
17 21.85 3.62
18 47.29 8.17
19 34.69 9.01
