Traveling Salesman Problem/TSP_generados/Aleatorio1621104134_19.opt.tour
NAME: Aleatorio1621104134_19.opt.tour
COMMENT: Optimal solution for Aleatorio1621104134_19 (201.01172876370163)
TYPE: TOUR
DIMENSION: 19
TOUR_SECTION
1 16 7 6 9 14 8 4 3 10 15 18 13 19 5 11 12 2 17
-1
EOF
